c File: flat75_3_0.col
c
c SOURCE: Joseph Culberson (joe@cs.ualberta.ca)
c DESCRIPTION: Quasi-random coloring problem
c              generated with flatness = 0
c                             probability = 0.096
c                             known coloring = 3
c                             random seed = 1010
c              Creation Date:  Wed Feb 24 10:41:49 1999
c Maximum degree = 8 Minimum degree = 1
c COLOR VERIFICATION: Using the permuted order
c under simple greedy yields the specified
c coloring number
c Color = 3 specified partitions = 3
c p edge 75 180
c cnf created by edge2cnf
p cnf 225 840
-1 -2 0
-1 -3 0
-2 -3 0
1 2 3 0
-4 -5 0
-4 -6 0
-5 -6 0
4 5 6 0
-7 -8 0
-7 -9 0
-8 -9 0
7 8 9 0
-10 -11 0
-10 -12 0
-11 -12 0
10 11 12 0
-13 -14 0
-13 -15 0
-14 -15 0
13 14 15 0
-16 -17 0
-16 -18 0
-17 -18 0
16 17 18 0
-19 -20 0
-19 -21 0
-20 -21 0
19 20 21 0
-22 -23 0
-22 -24 0
-23 -24 0
22 23 24 0
-25 -26 0
-25 -27 0
-26 -27 0
25 26 27 0
-28 -29 0
-28 -30 0
-29 -30 0
28 29 30 0
-31 -32 0
-31 -33 0
-32 -33 0
31 32 33 0
-34 -35 0
-34 -36 0
-35 -36 0
34 35 36 0
-37 -38 0
-37 -39 0
-38 -39 0
37 38 39 0
-40 -41 0
-40 -42 0
-41 -42 0
40 41 42 0
-43 -44 0
-43 -45 0
-44 -45 0
43 44 45 0
-46 -47 0
-46 -48 0
-47 -48 0
46 47 48 0
-49 -50 0
-49 -51 0
-50 -51 0
49 50 51 0
-52 -53 0
-52 -54 0
-53 -54 0
52 53 54 0
-55 -56 0
-55 -57 0
-56 -57 0
55 56 57 0
-58 -59 0
-58 -60 0
-59 -60 0
58 59 60 0
-61 -62 0
-61 -63 0
-62 -63 0
61 62 63 0
-64 -65 0
-64 -66 0
-65 -66 0
64 65 66 0
-67 -68 0
-67 -69 0
-68 -69 0
67 68 69 0
-70 -71 0
-70 -72 0
-71 -72 0
70 71 72 0
-73 -74 0
-73 -75 0
-74 -75 0
73 74 75 0
-76 -77 0
-76 -78 0
-77 -78 0
76 77 78 0
-79 -80 0
-79 -81 0
-80 -81 0
79 80 81 0
-82 -83 0
-82 -84 0
-83 -84 0
82 83 84 0
-85 -86 0
-85 -87 0
-86 -87 0
85 86 87 0
-88 -89 0
-88 -90 0
-89 -90 0
88 89 90 0
-91 -92 0
-91 -93 0
-92 -93 0
91 92 93 0
-94 -95 0
-94 -96 0
-95 -96 0
94 95 96 0
-97 -98 0
-97 -99 0
-98 -99 0
97 98 99 0
-100 -101 0
-100 -102 0
-101 -102 0
100 101 102 0
-103 -104 0
-103 -105 0
-104 -105 0
103 104 105 0
-106 -107 0
-106 -108 0
-107 -108 0
106 107 108 0
-109 -110 0
-109 -111 0
-110 -111 0
109 110 111 0
-112 -113 0
-112 -114 0
-113 -114 0
112 113 114 0
-115 -116 0
-115 -117 0
-116 -117 0
115 116 117 0
-118 -119 0
-118 -120 0
-119 -120 0
118 119 120 0
-121 -122 0
-121 -123 0
-122 -123 0
121 122 123 0
-124 -125 0
-124 -126 0
-125 -126 0
124 125 126 0
-127 -128 0
-127 -129 0
-128 -129 0
127 128 129 0
-130 -131 0
-130 -132 0
-131 -132 0
130 131 132 0
-133 -134 0
-133 -135 0
-134 -135 0
133 134 135 0
-136 -137 0
-136 -138 0
-137 -138 0
136 137 138 0
-139 -140 0
-139 -141 0
-140 -141 0
139 140 141 0
-142 -143 0
-142 -144 0
-143 -144 0
142 143 144 0
-145 -146 0
-145 -147 0
-146 -147 0
145 146 147 0
-148 -149 0
-148 -150 0
-149 -150 0
148 149 150 0
-151 -152 0
-151 -153 0
-152 -153 0
151 152 153 0
-154 -155 0
-154 -156 0
-155 -156 0
154 155 156 0
-157 -158 0
-157 -159 0
-158 -159 0
157 158 159 0
-160 -161 0
-160 -162 0
-161 -162 0
160 161 162 0
-163 -164 0
-163 -165 0
-164 -165 0
163 164 165 0
-166 -167 0
-166 -168 0
-167 -168 0
166 167 168 0
-169 -170 0
-169 -171 0
-170 -171 0
169 170 171 0
-172 -173 0
-172 -174 0
-173 -174 0
172 173 174 0
-175 -176 0
-175 -177 0
-176 -177 0
175 176 177 0
-178 -179 0
-178 -180 0
-179 -180 0
178 179 180 0
-181 -182 0
-181 -183 0
-182 -183 0
181 182 183 0
-184 -185 0
-184 -186 0
-185 -186 0
184 185 186 0
-187 -188 0
-187 -189 0
-188 -189 0
187 188 189 0
-190 -191 0
-190 -192 0
-191 -192 0
190 191 192 0
-193 -194 0
-193 -195 0
-194 -195 0
193 194 195 0
-196 -197 0
-196 -198 0
-197 -198 0
196 197 198 0
-199 -200 0
-199 -201 0
-200 -201 0
199 200 201 0
-202 -203 0
-202 -204 0
-203 -204 0
202 203 204 0
-205 -206 0
-205 -207 0
-206 -207 0
205 206 207 0
-208 -209 0
-208 -210 0
-209 -210 0
208 209 210 0
-211 -212 0
-211 -213 0
-212 -213 0
211 212 213 0
-214 -215 0
-214 -216 0
-215 -216 0
214 215 216 0
-217 -218 0
-217 -219 0
-218 -219 0
217 218 219 0
-220 -221 0
-220 -222 0
-221 -222 0
220 221 222 0
-223 -224 0
-223 -225 0
-224 -225 0
223 224 225 0
-19 -1 0
-20 -2 0
-21 -3 0
-46 -1 0
-47 -2 0
-48 -3 0
-154 -1 0
-155 -2 0
-156 -3 0
-172 -1 0
-173 -2 0
-174 -3 0
-187 -1 0
-188 -2 0
-189 -3 0
-193 -1 0
-194 -2 0
-195 -3 0
-79 -4 0
-80 -5 0
-81 -6 0
-115 -4 0
-116 -5 0
-117 -6 0
-118 -4 0
-119 -5 0
-120 -6 0
-121 -4 0
-122 -5 0
-123 -6 0
-151 -4 0
-152 -5 0
-153 -6 0
-154 -4 0
-155 -5 0
-156 -6 0
-22 -7 0
-23 -8 0
-24 -9 0
-37 -7 0
-38 -8 0
-39 -9 0
-55 -7 0
-56 -8 0
-57 -9 0
-70 -7 0
-71 -8 0
-72 -9 0
-142 -7 0
-143 -8 0
-144 -9 0
-175 -7 0
-176 -8 0
-177 -9 0
-16 -10 0
-17 -11 0
-18 -12 0
-34 -10 0
-35 -11 0
-36 -12 0
-64 -10 0
-65 -11 0
-66 -12 0
-109 -10 0
-110 -11 0
-111 -12 0
-112 -10 0
-113 -11 0
-114 -12 0
-139 -10 0
-140 -11 0
-141 -12 0
-154 -10 0
-155 -11 0
-156 -12 0
-16 -13 0
-17 -14 0
-18 -15 0
-31 -13 0
-32 -14 0
-33 -15 0
-55 -13 0
-56 -14 0
-57 -15 0
-130 -13 0
-131 -14 0
-132 -15 0
-193 -13 0
-194 -14 0
-195 -15 0
-217 -13 0
-218 -14 0
-219 -15 0
-220 -13 0
-221 -14 0
-222 -15 0
-49 -16 0
-50 -17 0
-51 -18 0
-70 -16 0
-71 -17 0
-72 -18 0
-136 -16 0
-137 -17 0
-138 -18 0
-184 -16 0
-185 -17 0
-186 -18 0
-202 -16 0
-203 -17 0
-204 -18 0
-40 -19 0
-41 -20 0
-42 -21 0
-82 -19 0
-83 -20 0
-84 -21 0
-190 -19 0
-191 -20 0
-192 -21 0
-28 -22 0
-29 -23 0
-30 -24 0
-46 -22 0
-47 -23 0
-48 -24 0
-151 -22 0
-152 -23 0
-153 -24 0
-166 -22 0
-167 -23 0
-168 -24 0
-43 -25 0
-44 -26 0
-45 -27 0
-73 -25 0
-74 -26 0
-75 -27 0
-187 -25 0
-188 -26 0
-189 -27 0
-193 -25 0
-194 -26 0
-195 -27 0
-70 -28 0
-71 -29 0
-72 -30 0
-85 -28 0
-86 -29 0
-87 -30 0
-115 -28 0
-116 -29 0
-117 -30 0
-124 -28 0
-125 -29 0
-126 -30 0
-169 -28 0
-170 -29 0
-171 -30 0
-37 -31 0
-38 -32 0
-39 -33 0
-61 -31 0
-62 -32 0
-63 -33 0
-112 -31 0
-113 -32 0
-114 -33 0
-178 -31 0
-179 -32 0
-180 -33 0
-217 -31 0
-218 -32 0
-219 -33 0
-112 -34 0
-113 -35 0
-114 -36 0
-184 -34 0
-185 -35 0
-186 -36 0
-211 -34 0
-212 -35 0
-213 -36 0
-52 -37 0
-53 -38 0
-54 -39 0
-88 -37 0
-89 -38 0
-90 -39 0
-61 -40 0
-62 -41 0
-63 -42 0
-124 -40 0
-125 -41 0
-126 -42 0
-145 -40 0
-146 -41 0
-147 -42 0
-157 -40 0
-158 -41 0
-159 -42 0
-223 -40 0
-224 -41 0
-225 -42 0
-64 -43 0
-65 -44 0
-66 -45 0
-82 -43 0
-83 -44 0
-84 -45 0
-139 -43 0
-140 -44 0
-141 -45 0
-142 -43 0
-143 -44 0
-144 -45 0
-199 -43 0
-200 -44 0
-201 -45 0
-211 -43 0
-212 -44 0
-213 -45 0
-67 -49 0
-68 -50 0
-69 -51 0
-205 -49 0
-206 -50 0
-207 -51 0
-121 -52 0
-122 -53 0
-123 -54 0
-127 -52 0
-128 -53 0
-129 -54 0
-181 -52 0
-182 -53 0
-183 -54 0
-94 -55 0
-95 -56 0
-96 -57 0
-151 -55 0
-152 -56 0
-153 -57 0
-196 -55 0
-197 -56 0
-198 -57 0
-223 -55 0
-224 -56 0
-225 -57 0
-136 -58 0
-137 -59 0
-138 -60 0
-142 -58 0
-143 -59 0
-144 -60 0
-70 -61 0
-71 -62 0
-72 -63 0
-88 -61 0
-89 -62 0
-90 -63 0
-91 -61 0
-92 -62 0
-93 -63 0
-106 -61 0
-107 -62 0
-108 -63 0
-133 -61 0
-134 -62 0
-135 -63 0
-148 -61 0
-149 -62 0
-150 -63 0
-73 -64 0
-74 -65 0
-75 -66 0
-76 -64 0
-77 -65 0
-78 -66 0
-187 -64 0
-188 -65 0
-189 -66 0
-199 -64 0
-200 -65 0
-201 -66 0
-208 -64 0
-209 -65 0
-210 -66 0
-214 -64 0
-215 -65 0
-216 -66 0
-139 -67 0
-140 -68 0
-141 -69 0
-169 -67 0
-170 -68 0
-171 -69 0
-175 -67 0
-176 -68 0
-177 -69 0
-181 -67 0
-182 -68 0
-183 -69 0
-208 -67 0
-209 -68 0
-210 -69 0
-160 -70 0
-161 -71 0
-162 -72 0
-181 -70 0
-182 -71 0
-183 -72 0
-85 -73 0
-86 -74 0
-87 -75 0
-94 -76 0
-95 -77 0
-96 -78 0
-133 -76 0
-134 -77 0
-135 -78 0
-181 -76 0
-182 -77 0
-183 -78 0
-91 -79 0
-92 -80 0
-93 -81 0
-106 -79 0
-107 -80 0
-108 -81 0
-214 -82 0
-215 -83 0
-216 -84 0
-184 -85 0
-185 -86 0
-186 -87 0
-136 -88 0
-137 -89 0
-138 -90 0
-148 -88 0
-149 -89 0
-150 -90 0
-112 -91 0
-113 -92 0
-114 -93 0
-169 -91 0
-170 -92 0
-171 -93 0
-175 -91 0
-176 -92 0
-177 -93 0
-178 -91 0
-179 -92 0
-180 -93 0
-220 -91 0
-221 -92 0
-222 -93 0
-145 -94 0
-146 -95 0
-147 -96 0
-148 -94 0
-149 -95 0
-150 -96 0
-169 -94 0
-170 -95 0
-171 -96 0
-124 -97 0
-125 -98 0
-126 -99 0
-118 -100 0
-119 -101 0
-120 -102 0
-124 -100 0
-125 -101 0
-126 -102 0
-127 -100 0
-128 -101 0
-129 -102 0
-109 -103 0
-110 -104 0
-111 -105 0
-181 -103 0
-182 -104 0
-183 -105 0
-223 -103 0
-224 -104 0
-225 -105 0
-130 -106 0
-131 -107 0
-132 -108 0
-190 -106 0
-191 -107 0
-192 -108 0
-202 -106 0
-203 -107 0
-204 -108 0
-208 -106 0
-209 -107 0
-210 -108 0
-127 -109 0
-128 -110 0
-129 -111 0
-166 -109 0
-167 -110 0
-168 -111 0
-193 -112 0
-194 -113 0
-195 -114 0
-205 -112 0
-206 -113 0
-207 -114 0
-130 -115 0
-131 -116 0
-132 -117 0
-136 -115 0
-137 -116 0
-138 -117 0
-121 -118 0
-122 -119 0
-123 -120 0
-199 -118 0
-200 -119 0
-201 -120 0
-202 -118 0
-203 -119 0
-204 -120 0
-223 -118 0
-224 -119 0
-225 -120 0
-154 -121 0
-155 -122 0
-156 -123 0
-196 -121 0
-197 -122 0
-198 -123 0
-133 -124 0
-134 -125 0
-135 -126 0
-172 -124 0
-173 -125 0
-174 -126 0
-205 -124 0
-206 -125 0
-207 -126 0
-145 -127 0
-146 -128 0
-147 -129 0
-154 -130 0
-155 -131 0
-156 -132 0
-184 -130 0
-185 -131 0
-186 -132 0
-199 -130 0
-200 -131 0
-201 -132 0
-211 -130 0
-212 -131 0
-213 -132 0
-151 -133 0
-152 -134 0
-153 -135 0
-160 -133 0
-161 -134 0
-162 -135 0
-211 -133 0
-212 -134 0
-213 -135 0
-166 -136 0
-167 -137 0
-168 -138 0
-181 -136 0
-182 -137 0
-183 -138 0
-211 -136 0
-212 -137 0
-213 -138 0
-223 -136 0
-224 -137 0
-225 -138 0
-178 -139 0
-179 -140 0
-180 -141 0
-184 -139 0
-185 -140 0
-186 -141 0
-214 -142 0
-215 -143 0
-216 -144 0
-157 -145 0
-158 -146 0
-159 -147 0
-172 -148 0
-173 -149 0
-174 -150 0
-214 -151 0
-215 -152 0
-216 -153 0
-190 -154 0
-191 -155 0
-192 -156 0
-193 -157 0
-194 -158 0
-195 -159 0
-196 -157 0
-197 -158 0
-198 -159 0
-169 -160 0
-170 -161 0
-171 -162 0
-208 -160 0
-209 -161 0
-210 -162 0
-181 -163 0
-182 -164 0
-183 -165 0
-184 -163 0
-185 -164 0
-186 -165 0
-196 -163 0
-197 -164 0
-198 -165 0
-217 -166 0
-218 -167 0
-219 -168 0
-214 -169 0
-215 -170 0
-216 -171 0
-181 -175 0
-182 -176 0
-183 -177 0
-217 -184 0
-218 -185 0
-219 -186 0
-223 -196 0
-224 -197 0
-225 -198 0
-223 -217 0
-224 -218 0
-225 -219 0
